c "random instance"
p edges 150 4439
e 1 3
e 1 4
e 1 6
e 1 7
e 1 13
e 1 16
e 1 19
e 1 20
e 1 21
e 1 22
e 1 23
e 1 24
e 1 25
e 1 27
e 1 28
e 1 31
e 1 32
e 1 35
e 1 43
e 1 47
e 1 49
e 1 51
e 1 52
e 1 59
e 1 62
e 1 65
e 1 66
e 1 67
e 1 68
e 1 70
e 1 77
e 1 78
e 1 79
e 1 80
e 1 81
e 1 82
e 1 84
e 1 88
e 1 91
e 1 92
e 1 93
e 1 97
e 1 102
e 1 105
e 1 110
e 1 114
e 1 118
e 1 121
e 1 122
e 1 123
e 1 127
e 1 128
e 1 129
e 1 138
e 1 140
e 1 142
e 1 146
e 1 148
e 1 150
e 2 3
e 2 7
e 2 8
e 2 9
e 2 10
e 2 14
e 2 15
e 2 16
e 2 17
e 2 19
e 2 22
e 2 24
e 2 25
e 2 27
e 2 29
e 2 30
e 2 31
e 2 32
e 2 33
e 2 37
e 2 38
e 2 41
e 2 42
e 2 43
e 2 45
e 2 48
e 2 51
e 2 52
e 2 54
e 2 55
e 2 62
e 2 63
e 2 74
e 2 81
e 2 82
e 2 83
e 2 84
e 2 87
e 2 88
e 2 89
e 2 90
e 2 94
e 2 95
e 2 98
e 2 99
e 2 101
e 2 102
e 2 103
e 2 104
e 2 105
e 2 110
e 2 114
e 2 118
e 2 127
e 2 128
e 2 129
e 2 135
e 2 137
e 2 140
e 2 141
e 2 142
e 2 149
e 2 150
e 3 6
e 3 7
e 3 8
e 3 11
e 3 12
e 3 16
e 3 18
e 3 21
e 3 26
e 3 28
e 3 31
e 3 32
e 3 33
e 3 39
e 3 43
e 3 45
e 3 46
e 3 47
e 3 51
e 3 55
e 3 56
e 3 57
e 3 59
e 3 62
e 3 63
e 3 68
e 3 70
e 3 71
e 3 72
e 3 73
e 3 79
e 3 86
e 3 89
e 3 95
e 3 97
e 3 99
e 3 100
e 3 103
e 3 104
e 3 106
e 3 117
e 3 119
e 3 120
e 3 121
e 3 132
e 3 133
e 3 134
e 3 138
e 3 140
e 3 143
e 3 146
e 3 148
e 3 150
e 4 5
e 4 6
e 4 7
e 4 8
e 4 14
e 4 16
e 4 20
e 4 22
e 4 24
e 4 25
e 4 26
e 4 29
e 4 30
e 4 35
e 4 40
e 4 43
e 4 45
e 4 46
e 4 47
e 4 48
e 4 52
e 4 59
e 4 61
e 4 62
e 4 63
e 4 66
e 4 68
e 4 71
e 4 72
e 4 73
e 4 81
e 4 82
e 4 83
e 4 87
e 4 88
e 4 92
e 4 94
e 4 96
e 4 98
e 4 100
e 4 102
e 4 104
e 4 105
e 4 109
e 4 114
e 4 121
e 4 123
e 4 124
e 4 126
e 4 132
e 4 144
e 4 145
e 4 150
e 5 10
e 5 12
e 5 13
e 5 14
e 5 15
e 5 16
e 5 17
e 5 19
e 5 21
e 5 23
e 5 26
e 5 28
e 5 29
e 5 33
e 5 35
e 5 36
e 5 39
e 5 40
e 5 42
e 5 43
e 5 47
e 5 52
e 5 57
e 5 59
e 5 61
e 5 62
e 5 64
e 5 72
e 5 76
e 5 78
e 5 81
e 5 83
e 5 86
e 5 90
e 5 91
e 5 95
e 5 97
e 5 98
e 5 101
e 5 102
e 5 103
e 5 108
e 5 111
e 5 113
e 5 118
e 5 119
e 5 122
e 5 124
e 5 125
e 5 126
e 5 128
e 5 131
e 5 145
e 5 146
e 5 147
e 5 149
e 6 10
e 6 12
e 6 15
e 6 17
e 6 20
e 6 21
e 6 22
e 6 24
e 6 26
e 6 27
e 6 30
e 6 36
e 6 37
e 6 39
e 6 40
e 6 41
e 6 45
e 6 52
e 6 53
e 6 55
e 6 62
e 6 69
e 6 72
e 6 77
e 6 78
e 6 79
e 6 81
e 6 91
e 6 92
e 6 95
e 6 98
e 6 101
e 6 102
e 6 104
e 6 106
e 6 107
e 6 116
e 6 117
e 6 121
e 6 122
e 6 123
e 6 124
e 6 127
e 6 130
e 6 138
e 6 139
e 6 140
e 6 141
e 6 144
e 6 148
e 6 149
e 7 9
e 7 12
e 7 14
e 7 17
e 7 19
e 7 22
e 7 29
e 7 31
e 7 32
e 7 37
e 7 43
e 7 48
e 7 50
e 7 52
e 7 54
e 7 56
e 7 59
e 7 60
e 7 61
e 7 70
e 7 71
e 7 72
e 7 73
e 7 75
e 7 76
e 7 77
e 7 81
e 7 82
e 7 84
e 7 85
e 7 87
e 7 90
e 7 92
e 7 93
e 7 96
e 7 99
e 7 102
e 7 103
e 7 104
e 7 105
e 7 108
e 7 110
e 7 111
e 7 112
e 7 116
e 7 117
e 7 118
e 7 120
e 7 122
e 7 124
e 7 125
e 7 129
e 7 133
e 7 135
e 7 137
e 7 143
e 7 147
e 7 149
e 8 11
e 8 13
e 8 17
e 8 18
e 8 22
e 8 25
e 8 27
e 8 28
e 8 31
e 8 32
e 8 33
e 8 35
e 8 36
e 8 38
e 8 40
e 8 41
e 8 44
e 8 46
e 8 50
e 8 51
e 8 58
e 8 60
e 8 64
e 8 65
e 8 66
e 8 69
e 8 70
e 8 72
e 8 78
e 8 79
e 8 82
e 8 83
e 8 87
e 8 88
e 8 90
e 8 91
e 8 93
e 8 95
e 8 100
e 8 103
e 8 104
e 8 107
e 8 108
e 8 111
e 8 113
e 8 114
e 8 115
e 8 116
e 8 118
e 8 119
e 8 123
e 8 124
e 8 126
e 8 127
e 8 129
e 8 133
e 8 134
e 8 135
e 8 136
e 8 139
e 8 144
e 8 145
e 8 148
e 8 150
e 9 11
e 9 12
e 9 13
e 9 16
e 9 18
e 9 24
e 9 29
e 9 31
e 9 35
e 9 36
e 9 38
e 9 39
e 9 41
e 9 42
e 9 44
e 9 47
e 9 48
e 9 49
e 9 56
e 9 57
e 9 58
e 9 61
e 9 63
e 9 64
e 9 65
e 9 71
e 9 72
e 9 77
e 9 79
e 9 80
e 9 83
e 9 85
e 9 86
e 9 87
e 9 88
e 9 91
e 9 97
e 9 98
e 9 100
e 9 102
e 9 104
e 9 109
e 9 111
e 9 112
e 9 114
e 9 115
e 9 120
e 9 121
e 9 123
e 9 126
e 9 132
e 9 133
e 9 134
e 9 135
e 9 136
e 9 143
e 9 148
e 9 149
e 10 11
e 10 12
e 10 15
e 10 17
e 10 18
e 10 20
e 10 21
e 10 28
e 10 33
e 10 34
e 10 35
e 10 36
e 10 40
e 10 44
e 10 51
e 10 53
e 10 62
e 10 63
e 10 73
e 10 75
e 10 83
e 10 89
e 10 90
e 10 92
e 10 93
e 10 94
e 10 101
e 10 105
e 10 107
e 10 111
e 10 112
e 10 115
e 10 116
e 10 117
e 10 119
e 10 121
e 10 125
e 10 127
e 10 130
e 10 132
e 10 136
e 10 138
e 10 140
e 10 145
e 10 147
e 11 12
e 11 13
e 11 14
e 11 16
e 11 19
e 11 20
e 11 25
e 11 26
e 11 28
e 11 29
e 11 31
e 11 32
e 11 34
e 11 39
e 11 41
e 11 42
e 11 43
e 11 48
e 11 49
e 11 50
e 11 51
e 11 52
e 11 54
e 11 56
e 11 58
e 11 59
e 11 67
e 11 70
e 11 76
e 11 82
e 11 85
e 11 87
e 11 89
e 11 92
e 11 97
e 11 104
e 11 108
e 11 109
e 11 112
e 11 114
e 11 115
e 11 116
e 11 121
e 11 124
e 11 125
e 11 128
e 11 131
e 11 132
e 11 133
e 11 140
e 11 144
e 11 147
e 11 149
e 11 150
e 12 13
e 12 15
e 12 19
e 12 20
e 12 25
e 12 33
e 12 35
e 12 38
e 12 39
e 12 42
e 12 45
e 12 47
e 12 49
e 12 50
e 12 56
e 12 71
e 12 72
e 12 74
e 12 75
e 12 76
e 12 81
e 12 82
e 12 88
e 12 92
e 12 93
e 12 96
e 12 104
e 12 106
e 12 107
e 12 108
e 12 109
e 12 110
e 12 111
e 12 112
e 12 114
e 12 115
e 12 116
e 12 122
e 12 125
e 12 127
e 12 130
e 12 133
e 12 135
e 12 145
e 12 147
e 13 14
e 13 18
e 13 22
e 13 23
e 13 31
e 13 35
e 13 37
e 13 38
e 13 39
e 13 45
e 13 49
e 13 52
e 13 56
e 13 58
e 13 59
e 13 61
e 13 62
e 13 64
e 13 65
e 13 67
e 13 68
e 13 71
e 13 72
e 13 73
e 13 76
e 13 77
e 13 79
e 13 82
e 13 84
e 13 85
e 13 88
e 13 91
e 13 92
e 13 93
e 13 94
e 13 98
e 13 104
e 13 105
e 13 106
e 13 108
e 13 109
e 13 110
e 13 111
e 13 118
e 13 125
e 13 126
e 13 129
e 13 130
e 13 135
e 13 136
e 13 137
e 13 138
e 13 139
e 13 147
e 13 148
e 13 149
e 13 150
e 14 16
e 14 19
e 14 21
e 14 24
e 14 26
e 14 27
e 14 29
e 14 33
e 14 35
e 14 37
e 14 39
e 14 40
e 14 46
e 14 48
e 14 50
e 14 52
e 14 54
e 14 58
e 14 60
e 14 61
e 14 63
e 14 64
e 14 69
e 14 70
e 14 73
e 14 74
e 14 80
e 14 83
e 14 84
e 14 86
e 14 88
e 14 91
e 14 93
e 14 95
e 14 99
e 14 106
e 14 109
e 14 111
e 14 112
e 14 125
e 14 126
e 14 128
e 14 131
e 14 133
e 14 138
e 14 142
e 14 145
e 14 149
e 14 150
e 15 18
e 15 19
e 15 20
e 15 22
e 15 25
e 15 29
e 15 33
e 15 34
e 15 35
e 15 36
e 15 37
e 15 39
e 15 46
e 15 52
e 15 55
e 15 59
e 15 60
e 15 62
e 15 66
e 15 71
e 15 77
e 15 78
e 15 80
e 15 81
e 15 83
e 15 84
e 15 85
e 15 88
e 15 89
e 15 91
e 15 93
e 15 94
e 15 97
e 15 98
e 15 100
e 15 101
e 15 102
e 15 104
e 15 105
e 15 106
e 15 109
e 15 111
e 15 117
e 15 119
e 15 124
e 15 126
e 15 130
e 15 132
e 15 135
e 15 136
e 15 137
e 15 140
e 15 141
e 15 145
e 15 146
e 15 150
e 16 20
e 16 21
e 16 23
e 16 24
e 16 25
e 16 32
e 16 34
e 16 36
e 16 39
e 16 40
e 16 41
e 16 44
e 16 48
e 16 50
e 16 52
e 16 58
e 16 59
e 16 61
e 16 65
e 16 66
e 16 67
e 16 68
e 16 70
e 16 71
e 16 72
e 16 74
e 16 77
e 16 78
e 16 81
e 16 83
e 16 89
e 16 91
e 16 93
e 16 94
e 16 107
e 16 108
e 16 109
e 16 112
e 16 114
e 16 120
e 16 121
e 16 124
e 16 127
e 16 128
e 16 129
e 16 135
e 16 136
e 16 137
e 16 139
e 16 148
e 16 149
e 16 150
e 17 20
e 17 21
e 17 22
e 17 25
e 17 26
e 17 28
e 17 33
e 17 45
e 17 46
e 17 51
e 17 52
e 17 53
e 17 54
e 17 55
e 17 57
e 17 58
e 17 60
e 17 61
e 17 63
e 17 70
e 17 72
e 17 73
e 17 79
e 17 81
e 17 82
e 17 86
e 17 89
e 17 90
e 17 91
e 17 93
e 17 99
e 17 101
e 17 105
e 17 107
e 17 110
e 17 114
e 17 116
e 17 121
e 17 125
e 17 133
e 17 136
e 17 137
e 17 141
e 17 142
e 17 145
e 17 148
e 17 150
e 18 19
e 18 20
e 18 27
e 18 29
e 18 30
e 18 35
e 18 37
e 18 40
e 18 41
e 18 44
e 18 45
e 18 46
e 18 49
e 18 53
e 18 56
e 18 57
e 18 58
e 18 63
e 18 65
e 18 66
e 18 68
e 18 69
e 18 70
e 18 71
e 18 75
e 18 77
e 18 81
e 18 82
e 18 85
e 18 87
e 18 89
e 18 93
e 18 96
e 18 97
e 18 102
e 18 103
e 18 107
e 18 108
e 18 112
e 18 115
e 18 117
e 18 118
e 18 119
e 18 120
e 18 124
e 18 125
e 18 126
e 18 130
e 18 131
e 18 132
e 18 133
e 18 137
e 18 138
e 18 145
e 18 150
e 19 22
e 19 25
e 19 27
e 19 31
e 19 33
e 19 34
e 19 35
e 19 41
e 19 43
e 19 45
e 19 49
e 19 50
e 19 52
e 19 53
e 19 57
e 19 58
e 19 59
e 19 60
e 19 66
e 19 72
e 19 73
e 19 76
e 19 80
e 19 84
e 19 85
e 19 88
e 19 89
e 19 91
e 19 96
e 19 97
e 19 101
e 19 107
e 19 108
e 19 109
e 19 113
e 19 114
e 19 115
e 19 117
e 19 118
e 19 120
e 19 121
e 19 123
e 19 124
e 19 126
e 19 130
e 19 132
e 19 133
e 19 136
e 19 138
e 19 140
e 19 141
e 19 143
e 19 144
e 19 145
e 19 146
e 19 148
e 19 149
e 20 21
e 20 22
e 20 23
e 20 27
e 20 37
e 20 38
e 20 40
e 20 42
e 20 43
e 20 46
e 20 48
e 20 50
e 20 54
e 20 58
e 20 61
e 20 62
e 20 64
e 20 68
e 20 71
e 20 72
e 20 73
e 20 75
e 20 76
e 20 77
e 20 78
e 20 80
e 20 82
e 20 83
e 20 86
e 20 87
e 20 89
e 20 90
e 20 94
e 20 95
e 20 96
e 20 97
e 20 98
e 20 100
e 20 112
e 20 116
e 20 119
e 20 120
e 20 121
e 20 123
e 20 125
e 20 126
e 20 129
e 20 132
e 20 133
e 20 134
e 20 136
e 20 139
e 20 140
e 20 141
e 20 142
e 20 146
e 20 147
e 21 22
e 21 27
e 21 29
e 21 30
e 21 31
e 21 33
e 21 36
e 21 37
e 21 39
e 21 41
e 21 44
e 21 47
e 21 49
e 21 50
e 21 51
e 21 52
e 21 57
e 21 58
e 21 65
e 21 66
e 21 68
e 21 70
e 21 73
e 21 75
e 21 76
e 21 77
e 21 84
e 21 85
e 21 95
e 21 97
e 21 98
e 21 100
e 21 103
e 21 104
e 21 108
e 21 112
e 21 114
e 21 115
e 21 116
e 21 118
e 21 119
e 21 122
e 21 126
e 21 127
e 21 129
e 21 130
e 21 131
e 21 134
e 21 135
e 21 138
e 21 140
e 21 146
e 21 147
e 21 148
e 21 149
e 21 150
e 22 26
e 22 28
e 22 29
e 22 32
e 22 36
e 22 37
e 22 38
e 22 39
e 22 41
e 22 43
e 22 47
e 22 53
e 22 55
e 22 58
e 22 59
e 22 60
e 22 64
e 22 66
e 22 70
e 22 79
e 22 80
e 22 85
e 22 89
e 22 93
e 22 94
e 22 95
e 22 96
e 22 97
e 22 100
e 22 103
e 22 104
e 22 109
e 22 110
e 22 111
e 22 116
e 22 117
e 22 118
e 22 119
e 22 123
e 22 125
e 22 129
e 22 130
e 22 133
e 22 134
e 22 135
e 22 141
e 22 148
e 23 26
e 23 27
e 23 28
e 23 33
e 23 34
e 23 36
e 23 37
e 23 39
e 23 40
e 23 41
e 23 42
e 23 48
e 23 49
e 23 50
e 23 52
e 23 54
e 23 57
e 23 59
e 23 63
e 23 65
e 23 71
e 23 72
e 23 74
e 23 77
e 23 80
e 23 81
e 23 86
e 23 88
e 23 89
e 23 91
e 23 97
e 23 98
e 23 99
e 23 100
e 23 101
e 23 102
e 23 104
e 23 108
e 23 109
e 23 110
e 23 112
e 23 113
e 23 115
e 23 124
e 23 125
e 23 130
e 23 131
e 23 135
e 23 141
e 23 143
e 23 147
e 23 148
e 23 149
e 24 25
e 24 26
e 24 27
e 24 28
e 24 29
e 24 31
e 24 32
e 24 34
e 24 35
e 24 37
e 24 39
e 24 42
e 24 44
e 24 47
e 24 49
e 24 50
e 24 51
e 24 55
e 24 56
e 24 57
e 24 63
e 24 64
e 24 65
e 24 68
e 24 70
e 24 71
e 24 75
e 24 76
e 24 77
e 24 78
e 24 80
e 24 82
e 24 83
e 24 84
e 24 86
e 24 89
e 24 91
e 24 98
e 24 100
e 24 107
e 24 108
e 24 110
e 24 113
e 24 115
e 24 118
e 24 119
e 24 122
e 24 123
e 24 125
e 24 126
e 24 128
e 24 135
e 24 138
e 24 140
e 24 141
e 24 144
e 24 145
e 24 146
e 24 148
e 24 149
e 25 29
e 25 33
e 25 34
e 25 37
e 25 41
e 25 42
e 25 43
e 25 53
e 25 56
e 25 57
e 25 58
e 25 67
e 25 68
e 25 71
e 25 73
e 25 78
e 25 79
e 25 80
e 25 81
e 25 82
e 25 83
e 25 85
e 25 86
e 25 87
e 25 89
e 25 93
e 25 100
e 25 103
e 25 107
e 25 108
e 25 109
e 25 111
e 25 112
e 25 114
e 25 119
e 25 121
e 25 123
e 25 126
e 25 127
e 25 130
e 25 136
e 25 138
e 25 147
e 25 148
e 26 28
e 26 31
e 26 32
e 26 33
e 26 34
e 26 35
e 26 36
e 26 37
e 26 39
e 26 40
e 26 41
e 26 42
e 26 49
e 26 51
e 26 52
e 26 53
e 26 54
e 26 56
e 26 58
e 26 59
e 26 60
e 26 64
e 26 65
e 26 68
e 26 70
e 26 73
e 26 81
e 26 82
e 26 85
e 26 87
e 26 88
e 26 92
e 26 93
e 26 95
e 26 100
e 26 101
e 26 106
e 26 113
e 26 124
e 26 125
e 26 126
e 26 130
e 26 134
e 26 135
e 26 137
e 26 138
e 26 140
e 26 141
e 26 143
e 26 144
e 27 28
e 27 29
e 27 31
e 27 35
e 27 38
e 27 39
e 27 40
e 27 43
e 27 49
e 27 52
e 27 56
e 27 61
e 27 62
e 27 63
e 27 68
e 27 75
e 27 76
e 27 78
e 27 80
e 27 82
e 27 88
e 27 90
e 27 100
e 27 102
e 27 107
e 27 111
e 27 112
e 27 113
e 27 115
e 27 116
e 27 118
e 27 119
e 27 120
e 27 122
e 27 124
e 27 125
e 27 127
e 27 128
e 27 130
e 27 132
e 27 136
e 27 137
e 27 139
e 27 144
e 27 147
e 28 30
e 28 33
e 28 38
e 28 41
e 28 43
e 28 44
e 28 47
e 28 50
e 28 54
e 28 56
e 28 57
e 28 60
e 28 65
e 28 69
e 28 70
e 28 73
e 28 74
e 28 76
e 28 77
e 28 79
e 28 87
e 28 89
e 28 93
e 28 95
e 28 99
e 28 100
e 28 101
e 28 102
e 28 105
e 28 110
e 28 111
e 28 115
e 28 116
e 28 117
e 28 119
e 28 120
e 28 123
e 28 124
e 28 125
e 28 126
e 28 127
e 28 132
e 28 136
e 28 138
e 28 141
e 28 143
e 28 145
e 28 146
e 28 149
e 28 150
e 29 32
e 29 34
e 29 35
e 29 37
e 29 38
e 29 42
e 29 43
e 29 44
e 29 47
e 29 48
e 29 51
e 29 53
e 29 57
e 29 59
e 29 63
e 29 64
e 29 69
e 29 72
e 29 76
e 29 77
e 29 81
e 29 82
e 29 84
e 29 86
e 29 87
e 29 92
e 29 101
e 29 103
e 29 107
e 29 119
e 29 131
e 29 132
e 29 134
e 29 135
e 29 137
e 29 139
e 29 142
e 29 143
e 29 144
e 29 145
e 29 148
e 29 149
e 30 31
e 30 32
e 30 33
e 30 34
e 30 42
e 30 44
e 30 47
e 30 50
e 30 53
e 30 54
e 30 55
e 30 58
e 30 59
e 30 60
e 30 63
e 30 66
e 30 69
e 30 70
e 30 72
e 30 76
e 30 77
e 30 79
e 30 85
e 30 92
e 30 95
e 30 96
e 30 97
e 30 98
e 30 100
e 30 101
e 30 102
e 30 104
e 30 109
e 30 112
e 30 116
e 30 124
e 30 126
e 30 128
e 30 132
e 30 134
e 30 139
e 30 143
e 30 150
e 31 32
e 31 34
e 31 35
e 31 37
e 31 42
e 31 43
e 31 45
e 31 46
e 31 47
e 31 51
e 31 53
e 31 60
e 31 61
e 31 62
e 31 64
e 31 65
e 31 70
e 31 73
e 31 75
e 31 79
e 31 81
e 31 82
e 31 87
e 31 88
e 31 89
e 31 92
e 31 94
e 31 96
e 31 99
e 31 102
e 31 103
e 31 111
e 31 118
e 31 119
e 31 123
e 31 124
e 31 126
e 31 127
e 31 130
e 31 131
e 31 137
e 31 138
e 31 141
e 31 146
e 31 147
e 31 148
e 31 149
e 31 150
e 32 33
e 32 36
e 32 39
e 32 40
e 32 41
e 32 42
e 32 44
e 32 48
e 32 52
e 32 53
e 32 56
e 32 58
e 32 60
e 32 61
e 32 62
e 32 63
e 32 65
e 32 66
e 32 69
e 32 70
e 32 75
e 32 77
e 32 80
e 32 85
e 32 87
e 32 92
e 32 98
e 32 99
e 32 100
e 32 103
e 32 107
e 32 110
e 32 111
e 32 112
e 32 114
e 32 115
e 32 131
e 32 133
e 32 137
e 32 138
e 32 139
e 32 145
e 32 150
e 33 34
e 33 37
e 33 39
e 33 43
e 33 45
e 33 49
e 33 50
e 33 53
e 33 55
e 33 56
e 33 57
e 33 60
e 33 61
e 33 64
e 33 65
e 33 67
e 33 71
e 33 72
e 33 73
e 33 78
e 33 82
e 33 84
e 33 87
e 33 90
e 33 92
e 33 94
e 33 96
e 33 108
e 33 111
e 33 112
e 33 114
e 33 119
e 33 122
e 33 123
e 33 124
e 33 128
e 33 129
e 33 130
e 33 133
e 33 134
e 33 135
e 33 137
e 33 139
e 33 142
e 33 143
e 33 145
e 33 146
e 33 147
e 33 149
e 34 37
e 34 38
e 34 39
e 34 40
e 34 41
e 34 42
e 34 43
e 34 45
e 34 46
e 34 55
e 34 62
e 34 64
e 34 65
e 34 66
e 34 70
e 34 71
e 34 72
e 34 74
e 34 76
e 34 80
e 34 81
e 34 82
e 34 83
e 34 85
e 34 86
e 34 87
e 34 88
e 34 93
e 34 94
e 34 96
e 34 97
e 34 102
e 34 108
e 34 109
e 34 110
e 34 118
e 34 120
e 34 125
e 34 127
e 34 131
e 34 135
e 34 137
e 34 138
e 34 139
e 34 140
e 34 142
e 34 146
e 34 147
e 34 149
e 34 150
e 35 37
e 35 41
e 35 45
e 35 51
e 35 52
e 35 56
e 35 57
e 35 59
e 35 64
e 35 68
e 35 71
e 35 72
e 35 78
e 35 82
e 35 83
e 35 84
e 35 87
e 35 89
e 35 90
e 35 96
e 35 100
e 35 102
e 35 103
e 35 104
e 35 109
e 35 111
e 35 119
e 35 120
e 35 125
e 35 129
e 35 131
e 35 135
e 35 136
e 35 137
e 35 138
e 35 140
e 35 141
e 35 143
e 35 144
e 35 147
e 35 148
e 36 38
e 36 40
e 36 42
e 36 43
e 36 45
e 36 47
e 36 48
e 36 51
e 36 56
e 36 59
e 36 60
e 36 69
e 36 75
e 36 76
e 36 77
e 36 81
e 36 82
e 36 88
e 36 89
e 36 90
e 36 94
e 36 99
e 36 100
e 36 106
e 36 109
e 36 111
e 36 122
e 36 123
e 36 125
e 36 129
e 36 131
e 36 132
e 36 135
e 36 138
e 36 139
e 36 145
e 36 146
e 36 149
e 37 38
e 37 41
e 37 42
e 37 44
e 37 50
e 37 51
e 37 54
e 37 55
e 37 58
e 37 61
e 37 62
e 37 63
e 37 64
e 37 66
e 37 67
e 37 71
e 37 73
e 37 74
e 37 75
e 37 76
e 37 78
e 37 79
e 37 82
e 37 84
e 37 93
e 37 96
e 37 97
e 37 101
e 37 102
e 37 103
e 37 104
e 37 105
e 37 114
e 37 118
e 37 119
e 37 122
e 37 124
e 37 125
e 37 126
e 37 130
e 37 132
e 37 134
e 37 136
e 37 139
e 37 142
e 37 143
e 37 144
e 37 145
e 37 147
e 37 149
e 38 41
e 38 43
e 38 45
e 38 52
e 38 54
e 38 71
e 38 73
e 38 75
e 38 82
e 38 83
e 38 84
e 38 86
e 38 87
e 38 89
e 38 91
e 38 92
e 38 94
e 38 100
e 38 105
e 38 106
e 38 108
e 38 109
e 38 112
e 38 114
e 38 115
e 38 117
e 38 128
e 38 129
e 38 133
e 38 134
e 38 136
e 38 138
e 38 143
e 38 145
e 38 148
e 39 41
e 39 42
e 39 43
e 39 44
e 39 45
e 39 46
e 39 49
e 39 52
e 39 54
e 39 55
e 39 57
e 39 62
e 39 64
e 39 67
e 39 68
e 39 70
e 39 72
e 39 73
e 39 79
e 39 87
e 39 99
e 39 100
e 39 101
e 39 103
e 39 104
e 39 105
e 39 110
e 39 111
e 39 115
e 39 116
e 39 117
e 39 118
e 39 120
e 39 121
e 39 122
e 39 124
e 39 125
e 39 129
e 39 130
e 39 131
e 39 133
e 39 134
e 39 139
e 39 141
e 39 147
e 40 42
e 40 43
e 40 44
e 40 55
e 40 59
e 40 60
e 40 61
e 40 62
e 40 63
e 40 65
e 40 66
e 40 69
e 40 71
e 40 73
e 40 74
e 40 79
e 40 80
e 40 88
e 40 89
e 40 91
e 40 92
e 40 95
e 40 101
e 40 102
e 40 103
e 40 104
e 40 110
e 40 111
e 40 113
e 40 114
e 40 115
e 40 117
e 40 118
e 40 119
e 40 120
e 40 121
e 40 122
e 40 123
e 40 133
e 40 134
e 40 135
e 40 137
e 40 138
e 40 142
e 40 144
e 40 146
e 40 147
e 40 149
e 41 42
e 41 48
e 41 50
e 41 52
e 41 56
e 41 60
e 41 61
e 41 64
e 41 65
e 41 72
e 41 76
e 41 78
e 41 79
e 41 83
e 41 85
e 41 88
e 41 90
e 41 92
e 41 93
e 41 97
e 41 100
e 41 102
e 41 107
e 41 109
e 41 111
e 41 113
e 41 114
e 41 118
e 41 119
e 41 120
e 41 122
e 41 125
e 41 126
e 41 134
e 41 135
e 41 137
e 41 138
e 41 145
e 41 147
e 41 148
e 41 149
e 41 150
e 42 44
e 42 45
e 42 52
e 42 55
e 42 59
e 42 63
e 42 64
e 42 67
e 42 69
e 42 76
e 42 79
e 42 83
e 42 84
e 42 87
e 42 88
e 42 89
e 42 97
e 42 98
e 42 99
e 42 103
e 42 108
e 42 110
e 42 112
e 42 114
e 42 115
e 42 116
e 42 117
e 42 119
e 42 127
e 42 130
e 42 131
e 42 132
e 42 133
e 42 138
e 42 139
e 42 141
e 42 144
e 42 147
e 42 148
e 43 45
e 43 46
e 43 47
e 43 53
e 43 54
e 43 59
e 43 60
e 43 61
e 43 63
e 43 65
e 43 66
e 43 69
e 43 71
e 43 75
e 43 77
e 43 78
e 43 80
e 43 84
e 43 85
e 43 89
e 43 91
e 43 92
e 43 95
e 43 99
e 43 101
e 43 102
e 43 104
e 43 110
e 43 114
e 43 120
e 43 123
e 43 125
e 43 127
e 43 129
e 43 133
e 43 135
e 43 136
e 43 138
e 43 139
e 43 142
e 43 143
e 43 144
e 43 148
e 44 47
e 44 52
e 44 62
e 44 65
e 44 68
e 44 70
e 44 72
e 44 73
e 44 75
e 44 76
e 44 77
e 44 81
e 44 82
e 44 87
e 44 88
e 44 91
e 44 98
e 44 107
e 44 108
e 44 110
e 44 115
e 44 117
e 44 121
e 44 125
e 44 126
e 44 130
e 44 135
e 44 138
e 44 139
e 44 141
e 44 142
e 44 143
e 44 147
e 44 150
e 45 46
e 45 48
e 45 49
e 45 50
e 45 51
e 45 52
e 45 53
e 45 54
e 45 57
e 45 58
e 45 59
e 45 60
e 45 64
e 45 68
e 45 72
e 45 74
e 45 75
e 45 76
e 45 77
e 45 79
e 45 80
e 45 87
e 45 89
e 45 90
e 45 93
e 45 95
e 45 96
e 45 99
e 45 100
e 45 101
e 45 107
e 45 108
e 45 110
e 45 113
e 45 115
e 45 117
e 45 120
e 45 122
e 45 125
e 45 126
e 45 131
e 45 132
e 45 133
e 45 137
e 45 143
e 45 146
e 45 147
e 46 48
e 46 49
e 46 50
e 46 51
e 46 53
e 46 56
e 46 60
e 46 68
e 46 69
e 46 73
e 46 74
e 46 80
e 46 82
e 46 86
e 46 89
e 46 90
e 46 91
e 46 92
e 46 94
e 46 97
e 46 101
e 46 103
e 46 108
e 46 119
e 46 122
e 46 128
e 46 129
e 46 132
e 46 133
e 46 135
e 46 136
e 46 140
e 46 143
e 46 145
e 46 147
e 46 148
e 47 49
e 47 55
e 47 58
e 47 59
e 47 61
e 47 62
e 47 68
e 47 70
e 47 73
e 47 75
e 47 76
e 47 81
e 47 82
e 47 83
e 47 91
e 47 99
e 47 101
e 47 104
e 47 106
e 47 108
e 47 117
e 47 118
e 47 120
e 47 121
e 47 122
e 47 125
e 47 126
e 47 127
e 47 133
e 47 137
e 47 139
e 47 140
e 47 141
e 47 143
e 47 145
e 47 147
e 47 148
e 47 149
e 48 50
e 48 51
e 48 56
e 48 57
e 48 58
e 48 59
e 48 63
e 48 64
e 48 65
e 48 69
e 48 71
e 48 73
e 48 78
e 48 81
e 48 83
e 48 84
e 48 89
e 48 90
e 48 91
e 48 96
e 48 98
e 48 100
e 48 101
e 48 104
e 48 105
e 48 115
e 48 118
e 48 119
e 48 122
e 48 124
e 48 128
e 48 129
e 48 133
e 48 134
e 48 136
e 48 137
e 48 141
e 48 143
e 48 146
e 48 147
e 48 148
e 48 149
e 49 50
e 49 53
e 49 54
e 49 65
e 49 73
e 49 75
e 49 76
e 49 79
e 49 80
e 49 81
e 49 82
e 49 84
e 49 85
e 49 86
e 49 89
e 49 91
e 49 93
e 49 94
e 49 95
e 49 97
e 49 101
e 49 103
e 49 106
e 49 111
e 49 114
e 49 119
e 49 120
e 49 122
e 49 124
e 49 128
e 49 129
e 49 130
e 49 131
e 49 133
e 49 135
e 49 137
e 49 141
e 49 143
e 49 144
e 49 148
e 50 55
e 50 57
e 50 62
e 50 64
e 50 66
e 50 69
e 50 75
e 50 77
e 50 79
e 50 83
e 50 87
e 50 89
e 50 90
e 50 93
e 50 99
e 50 107
e 50 108
e 50 110
e 50 111
e 50 112
e 50 115
e 50 116
e 50 117
e 50 119
e 50 123
e 50 127
e 50 130
e 50 131
e 50 133
e 50 134
e 50 138
e 50 139
e 50 140
e 50 141
e 50 143
e 50 144
e 50 147
e 50 148
e 50 149
e 51 52
e 51 53
e 51 55
e 51 58
e 51 60
e 51 62
e 51 63
e 51 65
e 51 66
e 51 67
e 51 73
e 51 76
e 51 77
e 51 79
e 51 81
e 51 84
e 51 85
e 51 89
e 51 90
e 51 93
e 51 95
e 51 99
e 51 100
e 51 101
e 51 106
e 51 110
e 51 111
e 51 114
e 51 115
e 51 117
e 51 118
e 51 119
e 51 123
e 51 124
e 51 126
e 51 128
e 51 130
e 51 132
e 51 133
e 51 136
e 51 139
e 51 141
e 51 142
e 51 144
e 51 145
e 52 53
e 52 54
e 52 56
e 52 57
e 52 60
e 52 62
e 52 63
e 52 64
e 52 65
e 52 66
e 52 67
e 52 72
e 52 73
e 52 76
e 52 79
e 52 80
e 52 83
e 52 84
e 52 86
e 52 88
e 52 89
e 52 90
e 52 91
e 52 92
e 52 94
e 52 96
e 52 98
e 52 99
e 52 102
e 52 108
e 52 110
e 52 111
e 52 113
e 52 116
e 52 124
e 52 125
e 52 127
e 52 137
e 52 139
e 52 140
e 52 142
e 52 143
e 52 145
e 52 148
e 52 149
e 52 150
e 53 54
e 53 55
e 53 56
e 53 58
e 53 59
e 53 60
e 53 62
e 53 64
e 53 65
e 53 68
e 53 69
e 53 71
e 53 72
e 53 73
e 53 74
e 53 75
e 53 86
e 53 88
e 53 92
e 53 96
e 53 97
e 53 98
e 53 99
e 53 101
e 53 107
e 53 119
e 53 120
e 53 121
e 53 123
e 53 127
e 53 132
e 53 134
e 53 135
e 53 136
e 53 137
e 53 139
e 53 140
e 53 142
e 53 143
e 53 144
e 53 145
e 53 147
e 53 149
e 53 150
e 54 55
e 54 56
e 54 60
e 54 62
e 54 65
e 54 69
e 54 70
e 54 72
e 54 73
e 54 75
e 54 82
e 54 83
e 54 87
e 54 89
e 54 94
e 54 95
e 54 96
e 54 98
e 54 100
e 54 102
e 54 107
e 54 108
e 54 109
e 54 112
e 54 113
e 54 114
e 54 116
e 54 117
e 54 121
e 54 123
e 54 127
e 54 133
e 54 134
e 54 136
e 54 137
e 54 139
e 54 140
e 54 142
e 54 143
e 55 56
e 55 59
e 55 60
e 55 61
e 55 67
e 55 69
e 55 70
e 55 71
e 55 75
e 55 76
e 55 77
e 55 80
e 55 82
e 55 88
e 55 91
e 55 92
e 55 93
e 55 96
e 55 97
e 55 98
e 55 101
e 55 102
e 55 104
e 55 106
e 55 107
e 55 109
e 55 117
e 55 118
e 55 119
e 55 121
e 55 124
e 55 126
e 55 127
e 55 128
e 55 133
e 55 138
e 55 140
e 55 144
e 55 146
e 55 147
e 56 58
e 56 60
e 56 63
e 56 64
e 56 67
e 56 72
e 56 76
e 56 78
e 56 87
e 56 90
e 56 93
e 56 97
e 56 98
e 56 99
e 56 100
e 56 102
e 56 107
e 56 109
e 56 110
e 56 112
e 56 113
e 56 114
e 56 115
e 56 116
e 56 117
e 56 119
e 56 121
e 56 122
e 56 123
e 56 125
e 56 131
e 56 136
e 56 137
e 56 138
e 56 140
e 56 141
e 56 144
e 56 145
e 56 147
e 56 148
e 57 60
e 57 62
e 57 63
e 57 64
e 57 70
e 57 75
e 57 77
e 57 79
e 57 81
e 57 82
e 57 84
e 57 86
e 57 90
e 57 92
e 57 94
e 57 95
e 57 98
e 57 103
e 57 105
e 57 106
e 57 108
e 57 109
e 57 110
e 57 113
e 57 116
e 57 119
e 57 121
e 57 124
e 57 129
e 57 136
e 57 138
e 57 140
e 57 141
e 57 144
e 57 147
e 57 148
e 57 150
e 58 59
e 58 60
e 58 61
e 58 67
e 58 69
e 58 76
e 58 77
e 58 78
e 58 80
e 58 85
e 58 91
e 58 93
e 58 98
e 58 100
e 58 102
e 58 104
e 58 108
e 58 116
e 58 118
e 58 120
e 58 125
e 58 126
e 58 128
e 58 129
e 58 131
e 58 134
e 58 137
e 58 138
e 58 140
e 58 142
e 58 147
e 59 60
e 59 63
e 59 64
e 59 70
e 59 71
e 59 73
e 59 74
e 59 82
e 59 83
e 59 84
e 59 85
e 59 86
e 59 89
e 59 93
e 59 96
e 59 97
e 59 103
e 59 105
e 59 106
e 59 109
e 59 113
e 59 117
e 59 121
e 59 122
e 59 123
e 59 124
e 59 127
e 59 129
e 59 131
e 59 134
e 59 136
e 59 139
e 59 140
e 59 141
e 59 148
e 59 149
e 60 62
e 60 64
e 60 65
e 60 66
e 60 69
e 60 70
e 60 71
e 60 73
e 60 75
e 60 76
e 60 77
e 60 78
e 60 86
e 60 89
e 60 91
e 60 97
e 60 99
e 60 101
e 60 105
e 60 107
e 60 109
e 60 110
e 60 114
e 60 115
e 60 119
e 60 120
e 60 121
e 60 124
e 60 125
e 60 126
e 60 127
e 60 128
e 60 130
e 60 131
e 60 132
e 60 133
e 60 138
e 60 142
e 61 62
e 61 64
e 61 66
e 61 67
e 61 69
e 61 70
e 61 71
e 61 77
e 61 84
e 61 85
e 61 91
e 61 95
e 61 96
e 61 99
e 61 101
e 61 103
e 61 106
e 61 107
e 61 110
e 61 111
e 61 113
e 61 120
e 61 122
e 61 123
e 61 127
e 61 128
e 61 133
e 61 134
e 61 138
e 61 140
e 61 143
e 61 144
e 61 145
e 62 63
e 62 65
e 62 66
e 62 67
e 62 68
e 62 69
e 62 72
e 62 73
e 62 77
e 62 85
e 62 86
e 62 87
e 62 90
e 62 91
e 62 92
e 62 95
e 62 97
e 62 100
e 62 101
e 62 106
e 62 107
e 62 111
e 62 113
e 62 114
e 62 115
e 62 116
e 62 117
e 62 121
e 62 124
e 62 126
e 62 128
e 62 130
e 62 131
e 62 132
e 62 133
e 62 135
e 62 137
e 62 142
e 62 144
e 62 145
e 62 147
e 63 64
e 63 65
e 63 66
e 63 67
e 63 70
e 63 71
e 63 72
e 63 74
e 63 80
e 63 86
e 63 89
e 63 92
e 63 96
e 63 97
e 63 101
e 63 103
e 63 106
e 63 110
e 63 113
e 63 119
e 63 124
e 63 126
e 63 129
e 63 130
e 63 131
e 63 135
e 63 142
e 63 144
e 63 148
e 63 150
e 64 66
e 64 67
e 64 68
e 64 69
e 64 70
e 64 71
e 64 72
e 64 73
e 64 74
e 64 75
e 64 77
e 64 78
e 64 80
e 64 88
e 64 89
e 64 90
e 64 91
e 64 92
e 64 93
e 64 94
e 64 95
e 64 97
e 64 106
e 64 109
e 64 110
e 64 112
e 64 115
e 64 116
e 64 117
e 64 121
e 64 122
e 64 123
e 64 124
e 64 127
e 64 129
e 64 132
e 64 135
e 64 137
e 64 138
e 64 139
e 64 141
e 64 148
e 64 149
e 65 66
e 65 67
e 65 71
e 65 72
e 65 73
e 65 74
e 65 77
e 65 80
e 65 82
e 65 85
e 65 86
e 65 88
e 65 97
e 65 99
e 65 102
e 65 107
e 65 109
e 65 110
e 65 111
e 65 113
e 65 118
e 65 119
e 65 120
e 65 124
e 65 125
e 65 127
e 65 129
e 65 131
e 65 133
e 65 136
e 65 137
e 65 142
e 65 144
e 65 149
e 66 67
e 66 68
e 66 72
e 66 73
e 66 75
e 66 78
e 66 80
e 66 82
e 66 85
e 66 90
e 66 91
e 66 92
e 66 95
e 66 97
e 66 100
e 66 101
e 66 103
e 66 105
e 66 106
e 66 110
e 66 113
e 66 114
e 66 120
e 66 122
e 66 124
e 66 125
e 66 127
e 66 130
e 66 136
e 66 138
e 66 139
e 66 140
e 66 141
e 66 143
e 66 150
e 67 69
e 67 70
e 67 71
e 67 72
e 67 74
e 67 75
e 67 78
e 67 80
e 67 81
e 67 82
e 67 87
e 67 89
e 67 91
e 67 93
e 67 94
e 67 95
e 67 96
e 67 98
e 67 100
e 67 102
e 67 103
e 67 109
e 67 111
e 67 114
e 67 118
e 67 119
e 67 120
e 67 121
e 67 124
e 67 126
e 67 129
e 67 137
e 67 138
e 67 139
e 67 142
e 67 143
e 67 148
e 67 150
e 68 71
e 68 72
e 68 73
e 68 74
e 68 77
e 68 80
e 68 82
e 68 83
e 68 84
e 68 87
e 68 90
e 68 92
e 68 93
e 68 94
e 68 95
e 68 97
e 68 98
e 68 99
e 68 100
e 68 101
e 68 103
e 68 104
e 68 108
e 68 109
e 68 110
e 68 111
e 68 114
e 68 115
e 68 117
e 68 119
e 68 125
e 68 126
e 68 128
e 68 132
e 68 134
e 68 137
e 68 143
e 68 144
e 68 145
e 68 147
e 69 78
e 69 79
e 69 80
e 69 81
e 69 82
e 69 84
e 69 86
e 69 87
e 69 93
e 69 99
e 69 100
e 69 102
e 69 103
e 69 104
e 69 106
e 69 107
e 69 110
e 69 113
e 69 115
e 69 116
e 69 117
e 69 118
e 69 120
e 69 124
e 69 127
e 69 128
e 69 130
e 69 131
e 69 132
e 69 133
e 69 136
e 69 144
e 69 149
e 70 74
e 70 77
e 70 79
e 70 82
e 70 83
e 70 89
e 70 92
e 70 94
e 70 95
e 70 96
e 70 98
e 70 103
e 70 111
e 70 112
e 70 114
e 70 121
e 70 122
e 70 125
e 70 127
e 70 129
e 70 131
e 70 135
e 70 137
e 70 138
e 70 145
e 70 149
e 70 150
e 71 72
e 71 74
e 71 76
e 71 77
e 71 82
e 71 84
e 71 85
e 71 89
e 71 90
e 71 94
e 71 99
e 71 100
e 71 102
e 71 106
e 71 110
e 71 112
e 71 113
e 71 114
e 71 115
e 71 116
e 71 118
e 71 128
e 71 129
e 71 134
e 71 135
e 71 137
e 71 138
e 71 139
e 71 140
e 71 141
e 71 143
e 71 145
e 71 146
e 71 149
e 71 150
e 72 75
e 72 76
e 72 78
e 72 80
e 72 83
e 72 84
e 72 86
e 72 88
e 72 89
e 72 92
e 72 93
e 72 94
e 72 97
e 72 98
e 72 99
e 72 101
e 72 106
e 72 111
e 72 112
e 72 114
e 72 116
e 72 117
e 72 118
e 72 121
e 72 123
e 72 126
e 72 127
e 72 129
e 72 132
e 72 135
e 72 136
e 72 137
e 72 139
e 72 140
e 72 143
e 72 144
e 72 145
e 72 147
e 72 150
e 73 75
e 73 79
e 73 80
e 73 86
e 73 87
e 73 88
e 73 97
e 73 103
e 73 104
e 73 107
e 73 109
e 73 115
e 73 116
e 73 117
e 73 118
e 73 120
e 73 123
e 73 129
e 73 131
e 73 133
e 73 134
e 73 135
e 73 137
e 73 140
e 73 141
e 73 142
e 73 143
e 73 145
e 73 146
e 73 147
e 73 149
e 73 150
e 74 79
e 74 80
e 74 84
e 74 87
e 74 92
e 74 95
e 74 97
e 74 98
e 74 101
e 74 104
e 74 105
e 74 110
e 74 112
e 74 115
e 74 126
e 74 127
e 74 129
e 74 133
e 74 134
e 74 136
e 74 138
e 74 140
e 74 142
e 74 146
e 74 150
e 75 76
e 75 77
e 75 78
e 75 82
e 75 86
e 75 90
e 75 91
e 75 97
e 75 100
e 75 102
e 75 103
e 75 105
e 75 106
e 75 108
e 75 114
e 75 115
e 75 119
e 75 121
e 75 124
e 75 125
e 75 129
e 75 131
e 75 133
e 75 135
e 75 136
e 75 137
e 75 142
e 75 143
e 75 144
e 75 146
e 75 147
e 75 148
e 75 150
e 76 82
e 76 90
e 76 92
e 76 96
e 76 98
e 76 100
e 76 101
e 76 105
e 76 109
e 76 110
e 76 113
e 76 116
e 76 119
e 76 123
e 76 124
e 76 127
e 76 129
e 76 131
e 76 133
e 76 134
e 76 135
e 76 137
e 76 138
e 76 144
e 76 147
e 76 148
e 76 149
e 76 150
e 77 86
e 77 87
e 77 88
e 77 89
e 77 97
e 77 102
e 77 103
e 77 105
e 77 110
e 77 111
e 77 112
e 77 114
e 77 118
e 77 121
e 77 123
e 77 126
e 77 134
e 77 138
e 77 140
e 77 144
e 77 146
e 77 147
e 77 148
e 77 150
e 78 79
e 78 80
e 78 81
e 78 82
e 78 88
e 78 96
e 78 98
e 78 101
e 78 103
e 78 106
e 78 108
e 78 111
e 78 113
e 78 114
e 78 115
e 78 116
e 78 122
e 78 124
e 78 125
e 78 126
e 78 127
e 78 130
e 78 131
e 78 136
e 78 138
e 78 141
e 78 142
e 78 143
e 78 144
e 78 150
e 79 81
e 79 83
e 79 86
e 79 89
e 79 92
e 79 93
e 79 94
e 79 97
e 79 101
e 79 103
e 79 104
e 79 105
e 79 107
e 79 109
e 79 110
e 79 112
e 79 118
e 79 125
e 79 126
e 79 127
e 79 129
e 79 130
e 79 135
e 79 136
e 79 137
e 79 138
e 79 139
e 79 141
e 79 142
e 80 81
e 80 82
e 80 85
e 80 91
e 80 94
e 80 100
e 80 102
e 80 103
e 80 104
e 80 107
e 80 109
e 80 111
e 80 112
e 80 113
e 80 114
e 80 115
e 80 117
e 80 118
e 80 121
e 80 125
e 80 126
e 80 127
e 80 130
e 80 131
e 80 133
e 80 137
e 80 138
e 80 141
e 80 143
e 80 144
e 80 146
e 81 83
e 81 85
e 81 86
e 81 95
e 81 99
e 81 101
e 81 103
e 81 104
e 81 105
e 81 106
e 81 113
e 81 114
e 81 117
e 81 119
e 81 120
e 81 122
e 81 130
e 81 132
e 81 134
e 81 137
e 81 140
e 81 141
e 81 143
e 81 144
e 81 149
e 82 84
e 82 86
e 82 94
e 82 99
e 82 101
e 82 103
e 82 106
e 82 107
e 82 110
e 82 117
e 82 123
e 82 126
e 82 127
e 82 129
e 82 131
e 82 132
e 82 138
e 82 140
e 82 142
e 82 143
e 82 147
e 82 150
e 83 87
e 83 91
e 83 95
e 83 99
e 83 101
e 83 102
e 83 106
e 83 107
e 83 108
e 83 111
e 83 119
e 83 122
e 83 125
e 83 127
e 83 128
e 83 129
e 83 130
e 83 131
e 83 132
e 83 133
e 83 141
e 83 142
e 83 148
e 83 149
e 83 150
e 84 85
e 84 87
e 84 89
e 84 90
e 84 94
e 84 95
e 84 96
e 84 97
e 84 99
e 84 101
e 84 103
e 84 104
e 84 110
e 84 112
e 84 114
e 84 116
e 84 119
e 84 120
e 84 123
e 84 125
e 84 129
e 84 130
e 84 131
e 84 132
e 84 135
e 84 138
e 84 139
e 84 140
e 84 143
e 84 146
e 84 148
e 85 89
e 85 90
e 85 91
e 85 92
e 85 93
e 85 96
e 85 98
e 85 101
e 85 103
e 85 109
e 85 112
e 85 116
e 85 118
e 85 124
e 85 126
e 85 129
e 85 130
e 85 132
e 85 133
e 85 136
e 85 141
e 85 143
e 85 144
e 85 146
e 85 150
e 86 90
e 86 98
e 86 103
e 86 104
e 86 105
e 86 110
e 86 112
e 86 114
e 86 117
e 86 121
e 86 122
e 86 126
e 86 131
e 86 132
e 86 136
e 86 137
e 86 140
e 86 144
e 86 149
e 87 90
e 87 93
e 87 101
e 87 102
e 87 107
e 87 109
e 87 110
e 87 111
e 87 119
e 87 121
e 87 125
e 87 126
e 87 127
e 87 128
e 87 130
e 87 131
e 87 135
e 87 137
e 87 138
e 87 140
e 87 147
e 87 149
e 88 89
e 88 93
e 88 98
e 88 102
e 88 104
e 88 105
e 88 111
e 88 113
e 88 114
e 88 115
e 88 116
e 88 117
e 88 123
e 88 125
e 88 128
e 88 131
e 88 132
e 88 137
e 88 139
e 88 140
e 88 146
e 88 147
e 88 148
e 88 150
e 89 90
e 89 95
e 89 96
e 89 97
e 89 98
e 89 102
e 89 103
e 89 106
e 89 110
e 89 113
e 89 115
e 89 121
e 89 126
e 89 128
e 89 130
e 89 131
e 89 139
e 89 145
e 89 150
e 90 91
e 90 92
e 90 93
e 90 98
e 90 100
e 90 101
e 90 102
e 90 103
e 90 104
e 90 106
e 90 108
e 90 111
e 90 112
e 90 113
e 90 114
e 90 120
e 90 134
e 90 139
e 90 140
e 90 141
e 90 144
e 90 146
e 90 147
e 90 150
e 91 92
e 91 94
e 91 95
e 91 100
e 91 101
e 91 102
e 91 106
e 91 109
e 91 110
e 91 114
e 91 115
e 91 124
e 91 125
e 91 126
e 91 127
e 91 128
e 91 131
e 91 134
e 91 137
e 91 138
e 91 140
e 91 143
e 91 145
e 91 148
e 91 149
e 92 93
e 92 102
e 92 107
e 92 110
e 92 111
e 92 113
e 92 114
e 92 115
e 92 117
e 92 123
e 92 124
e 92 125
e 92 127
e 92 128
e 92 129
e 92 131
e 92 138
e 92 139
e 92 142
e 92 144
e 92 148
e 92 149
e 92 150
e 93 94
e 93 95
e 93 97
e 93 100
e 93 103
e 93 106
e 93 108
e 93 112
e 93 113
e 93 116
e 93 120
e 93 122
e 93 123
e 93 125
e 93 128
e 93 130
e 93 131
e 93 137
e 93 139
e 93 143
e 93 144
e 93 145
e 93 146
e 93 147
e 94 100
e 94 101
e 94 102
e 94 104
e 94 111
e 94 112
e 94 114
e 94 115
e 94 117
e 94 120
e 94 121
e 94 122
e 94 123
e 94 124
e 94 126
e 94 129
e 94 132
e 94 135
e 94 136
e 94 139
e 94 140
e 94 142
e 94 145
e 94 146
e 94 147
e 94 150
e 95 97
e 95 99
e 95 100
e 95 101
e 95 103
e 95 104
e 95 105
e 95 109
e 95 111
e 95 112
e 95 114
e 95 119
e 95 120
e 95 121
e 95 122
e 95 126
e 95 131
e 95 134
e 95 137
e 95 138
e 95 141
e 95 142
e 95 144
e 95 147
e 95 148
e 96 98
e 96 101
e 96 102
e 96 105
e 96 106
e 96 113
e 96 115
e 96 116
e 96 118
e 96 127
e 96 129
e 96 131
e 96 133
e 96 139
e 96 141
e 96 143
e 96 146
e 96 148
e 97 102
e 97 106
e 97 108
e 97 109
e 97 112
e 97 115
e 97 116
e 97 119
e 97 120
e 97 122
e 97 124
e 97 126
e 97 127
e 97 128
e 97 129
e 97 130
e 97 132
e 97 133
e 97 139
e 97 141
e 97 143
e 97 147
e 98 99
e 98 101
e 98 103
e 98 104
e 98 110
e 98 112
e 98 113
e 98 115
e 98 116
e 98 117
e 98 120
e 98 122
e 98 123
e 98 125
e 98 133
e 98 134
e 98 137
e 98 140
e 98 141
e 98 143
e 98 144
e 98 146
e 98 149
e 98 150
e 99 101
e 99 102
e 99 103
e 99 104
e 99 106
e 99 108
e 99 111
e 99 121
e 99 123
e 99 125
e 99 131
e 99 133
e 99 136
e 99 137
e 99 140
e 99 142
e 100 101
e 100 108
e 100 112
e 100 118
e 100 120
e 100 121
e 100 123
e 100 124
e 100 125
e 100 128
e 100 129
e 100 133
e 100 137
e 100 143
e 100 149
e 100 150
e 101 103
e 101 105
e 101 110
e 101 113
e 101 116
e 101 118
e 101 119
e 101 122
e 101 123
e 101 125
e 101 126
e 101 128
e 101 130
e 101 131
e 101 132
e 101 138
e 101 141
e 101 148
e 101 149
e 101 150
e 102 104
e 102 110
e 102 111
e 102 114
e 102 116
e 102 117
e 102 118
e 102 119
e 102 120
e 102 121
e 102 122
e 102 126
e 102 129
e 102 130
e 102 131
e 102 133
e 102 134
e 102 141
e 102 145
e 102 146
e 102 148
e 103 104
e 103 105
e 103 106
e 103 111
e 103 113
e 103 115
e 103 120
e 103 125
e 103 126
e 103 130
e 103 134
e 103 137
e 103 140
e 103 141
e 103 142
e 104 105
e 104 107
e 104 111
e 104 112
e 104 115
e 104 120
e 104 121
e 104 125
e 104 126
e 104 130
e 104 133
e 104 145
e 104 146
e 104 150
e 105 107
e 105 109
e 105 112
e 105 113
e 105 115
e 105 117
e 105 118
e 105 123
e 105 125
e 105 126
e 105 128
e 105 129
e 105 131
e 105 133
e 105 134
e 105 136
e 105 140
e 105 141
e 105 145
e 105 149
e 106 107
e 106 108
e 106 110
e 106 113
e 106 114
e 106 115
e 106 117
e 106 119
e 106 121
e 106 122
e 106 127
e 106 129
e 106 130
e 106 132
e 106 138
e 106 139
e 106 140
e 106 142
e 106 146
e 106 147
e 107 110
e 107 113
e 107 117
e 107 120
e 107 121
e 107 122
e 107 125
e 107 127
e 107 128
e 107 135
e 107 136
e 107 137
e 107 138
e 107 139
e 107 141
e 107 142
e 107 144
e 107 145
e 107 146
e 107 149
e 108 113
e 108 114
e 108 121
e 108 122
e 108 125
e 108 130
e 108 132
e 108 141
e 108 145
e 108 146
e 108 149
e 108 150
e 109 111
e 109 114
e 109 121
e 109 124
e 109 130
e 109 131
e 109 133
e 109 137
e 109 138
e 109 139
e 109 142
e 109 149
e 110 112
e 110 117
e 110 119
e 110 121
e 110 123
e 110 126
e 110 128
e 110 130
e 110 131
e 110 133
e 110 134
e 110 135
e 110 139
e 110 142
e 110 148
e 110 150
e 111 114
e 111 115
e 111 116
e 111 125
e 111 127
e 111 128
e 111 129
e 111 131
e 111 132
e 111 133
e 111 141
e 111 142
e 111 145
e 111 148
e 111 150
e 112 115
e 112 119
e 112 121
e 112 122
e 112 123
e 112 124
e 112 127
e 112 128
e 112 129
e 112 132
e 112 138
e 112 140
e 112 141
e 112 144
e 112 145
e 113 114
e 113 118
e 113 119
e 113 120
e 113 123
e 113 124
e 113 125
e 113 127
e 113 130
e 113 131
e 113 132
e 113 133
e 113 139
e 113 140
e 113 142
e 113 144
e 113 146
e 113 149
e 114 115
e 114 116
e 114 117
e 114 118
e 114 119
e 114 121
e 114 126
e 114 128
e 114 133
e 114 136
e 114 139
e 114 143
e 114 144
e 114 147
e 114 149
e 114 150
e 115 127
e 115 132
e 115 135
e 115 136
e 115 137
e 115 138
e 115 140
e 115 141
e 115 143
e 115 147
e 116 121
e 116 124
e 116 125
e 116 126
e 116 129
e 116 130
e 116 131
e 116 134
e 116 136
e 116 137
e 116 140
e 116 141
e 116 144
e 116 146
e 116 147
e 116 149
e 117 121
e 117 124
e 117 126
e 117 129
e 117 130
e 117 132
e 117 134
e 117 137
e 117 139
e 117 141
e 117 144
e 117 146
e 117 149
e 118 119
e 118 123
e 118 124
e 118 125
e 118 126
e 118 127
e 118 128
e 118 130
e 118 132
e 118 133
e 118 135
e 118 136
e 118 137
e 118 138
e 118 141
e 118 143
e 118 144
e 118 145
e 118 147
e 118 148
e 118 149
e 119 122
e 119 130
e 119 132
e 119 136
e 119 137
e 119 138
e 119 140
e 119 142
e 119 143
e 119 144
e 119 147
e 119 149
e 119 150
e 120 130
e 120 133
e 120 134
e 120 135
e 120 138
e 120 142
e 120 144
e 120 149
e 120 150
e 121 123
e 121 124
e 121 125
e 121 128
e 121 129
e 121 133
e 121 141
e 121 142
e 121 144
e 121 146
e 121 148
e 122 123
e 122 124
e 122 126
e 122 127
e 122 128
e 122 132
e 122 133
e 122 134
e 122 135
e 122 136
e 122 139
e 122 141
e 122 143
e 122 144
e 122 146
e 122 147
e 123 124
e 123 125
e 123 127
e 123 130
e 123 133
e 123 135
e 123 137
e 123 141
e 123 145
e 123 147
e 123 149
e 124 125
e 124 127
e 124 133
e 124 134
e 124 140
e 124 142
e 124 143
e 124 144
e 124 145
e 124 147
e 124 149
e 125 127
e 125 128
e 125 144
e 125 145
e 125 149
e 126 129
e 126 130
e 126 131
e 126 132
e 126 134
e 126 135
e 126 137
e 126 142
e 126 143
e 126 144
e 126 146
e 126 149
e 127 130
e 127 138
e 127 140
e 127 141
e 127 143
e 127 144
e 127 148
e 127 150
e 128 129
e 128 132
e 128 133
e 128 134
e 128 135
e 128 136
e 128 140
e 128 141
e 128 144
e 128 145
e 128 146
e 128 148
e 128 149
e 129 130
e 129 131
e 129 132
e 129 134
e 129 137
e 129 138
e 129 143
e 129 146
e 129 147
e 130 131
e 130 133
e 130 134
e 130 137
e 130 138
e 130 144
e 130 145
e 130 146
e 130 148
e 130 150
e 131 132
e 131 134
e 131 135
e 131 136
e 131 139
e 131 143
e 131 145
e 131 147
e 131 148
e 131 149
e 132 133
e 132 134
e 132 135
e 132 136
e 132 139
e 132 142
e 132 144
e 132 148
e 132 149
e 133 134
e 133 136
e 133 137
e 133 138
e 133 139
e 133 141
e 133 142
e 133 144
e 133 146
e 134 141
e 134 142
e 134 143
e 134 144
e 134 145
e 134 147
e 134 149
e 135 138
e 135 143
e 135 144
e 135 148
e 136 137
e 136 138
e 136 139
e 136 140
e 136 143
e 136 144
e 136 146
e 136 147
e 136 148
e 137 147
e 137 149
e 138 140
e 138 143
e 138 144
e 138 145
e 138 147
e 138 148
e 138 149
e 139 143
e 140 141
e 140 142
e 140 148
e 140 149
e 140 150
e 141 143
e 141 148
e 141 150
e 142 143
e 142 144
e 142 146
e 142 148
e 142 149
e 142 150
e 143 147
e 143 150
e 144 147
e 145 147
e 145 150
e 146 147
e 147 148
e 148 149
